2
1000 6
121
14 1 2
15 1 1
17 1 2
18 1 3
22 1 2
23 1 2
24 1 2
26 1 1
27 1 1
28 1 1
29 1 2
30 1 1
31 1 1
32 1 1
33 1 1
35 1 3
38 1 1
40 1 1
41 1 1
43 1 2
44 1 3
46 1 1
47 1 1
48 1 3
50 1 1
52 1 1
53 1 1
54 1 2
55 1 2
58 1 2
59 1 2
61 1 1
62 1 1
63 1 1
66 1 2
68 1 2
69 1 1
71 1 1
74 1 1
76 1 2
78 1 4
81 1 3
82 1 3
83 1 1
84 1 1
85 1 1
87 1 1
89 1 1
91 1 1
92 1 2
93 1 1
94 1 1
97 1 1
99 1 1
101 1 3
102 1 1
103 1 1
106 1 2
107 1 4
108 1 3
111 1 2
112 1 2
115 1 1
116 1 1
117 1 1
118 1 1
119 1 1
120 1 1
122 1 1
123 1 1
126 1 1
127 1 2
129 1 3
130 1 2
132 1 1
133 1 1
134 1 1
136 1 3
138 1 1
142 1 2
143 1 1
144 1 4
145 1 3
148 1 1
150 1 1
151 1 3
152 1 1
153 1 1
155 1 2
156 1 2
157 1 1
161 1 1
163 1 2
164 1 2
165 1 1
169 1 2
170 1 2
171 1 2
172 1 2
173 1 2
175 1 1
177 1 1
180 1 3
182 1 4
183 1 1
184 1 1
186 1 2
187 1 2
191 1 3
192 1 2
193 1 1
194 1 2
195 1 1
198 1 2
199 1 2
201 1 2
202 1 1
204 1 1
205 1 3
206 1 1
208 1 1
